<?xml version="1.0" encoding="UTF-8"?><osil xmlns="os.optimizationservices.org" xmlns:xsi="http://www.w3.org/2001/XMLSchema-instance" xsi:schemaLocation="os.optimizationservices.org http://www.optimizationservices.org/schemas/2.0/OSiL.xsd"><instanceHeader><name>st_miqp3</name></instanceHeader><instanceData><variables numberOfVariables="2"><var name="i1" type="I" ub="3"/><var name="i2" type="I" ub="1e15"/></variables><objectives><obj maxOrMin="min" name="defObj_objvar" numberOfObjCoef="1"><coef idx="1">-3</coef></obj></objectives><constraints numberOfConstraints="1"><con name="e1" ub="0"/></constraints><linearConstraintCoefficients numberOfValues="2"><start><el>0</el><el>2</el></start><colIdx><el>0</el><el>1</el></colIdx><value><el>-4</el><el>1</el></value></linearConstraintCoefficients><quadraticCoefficients numberOfQuadraticTerms="1"><qTerm idx="-1" idxOne="0" idxTwo="0" coef="6"/></quadraticCoefficients></instanceData></osil>